knapPI_11_20_1000_1
n 20
c 970
z 1428
time 0.00
1,114,582,0
2,38,194,0
3,133,679,0
4,95,485,0
5,612,396,0
6,171,873,0
7,918,594,0
8,408,264,0
9,714,462,1
10,510,330,0
11,114,582,0
12,76,388,0
13,57,291,0
14,204,132,0
15,1020,660,0
16,816,528,0
17,190,970,0
18,510,330,0
19,114,582,0
20,714,462,1
